Li4 Ga20 O32
1.0
        8.2219038010         0.0000000000         0.0000000000
        0.0000000000         8.2219038010         0.0000000000
        0.0000000000         0.0000000000         8.2219038010
   Li   Ga    O
    4   20   32
Direct
     0.625000000         0.625000000         0.625000000
     0.375000000         0.125000000         0.875000000
     0.875000000         0.375000000         0.125000000
     0.125000000         0.875000000         0.375000000
     0.125000000         0.365985096         0.884014904
     0.253299087         0.253299087         0.253299087
     0.003299090         0.496700913         0.503299117
     0.496700913         0.503299117         0.003299090
     0.503299117         0.003299090         0.496700913
     0.753299117         0.246700913         0.746700883
     0.246700913         0.746700883         0.753299117
     0.746700883         0.753299117         0.246700913
     0.996700883         0.996700883         0.996700883
     0.625000000         0.134014890         0.115985110
     0.615985096         0.875000000         0.865985096
     0.634014904         0.384014904         0.375000000
     0.365985096         0.884014904         0.125000000
     0.884014904         0.125000000         0.365985096
     0.115985110         0.625000000         0.134014890
     0.384014904         0.375000000         0.634014904
     0.865985096         0.615985096         0.875000000
     0.134014890         0.115985110         0.625000000
     0.375000000         0.634014904         0.384014904
     0.875000000         0.865985096         0.615985096
     0.873159826         0.884637415         0.381276250
     0.131276250         0.865362585         0.123159848
     0.631276250         0.634637415         0.876840174
     0.865362585         0.123159848         0.131276250
     0.134637430         0.623159826         0.368723750
     0.123159848         0.131276250         0.865362585
     0.376840144         0.868723750         0.365362585
     0.381276250         0.873159826         0.884637415
     0.881276250         0.626840174         0.115362570
     0.618723750         0.373159856         0.615362585
     0.626840174         0.115362570         0.881276250
     0.615362585         0.618723750         0.373159856
     0.115362570         0.881276250         0.626840174
     0.113252699         0.613252699         0.886747301
     0.884637415         0.381276250         0.873159826
     0.373159856         0.615362585         0.618723750
     0.126840144         0.384637415         0.118723750
     0.384637415         0.118723750         0.126840144
     0.876840174         0.631276250         0.634637415
     0.623159826         0.368723750         0.134637430
     0.386747301         0.386747301         0.386747301
     0.136747301         0.363252699         0.636747301
     0.636747301         0.136747301         0.363252699
     0.363252699         0.636747301         0.136747301
     0.613252699         0.886747301         0.113252699
     0.886747301         0.113252699         0.613252699
     0.634637415         0.876840174         0.631276250
     0.863252699         0.863252699         0.863252699
     0.118723750         0.126840144         0.384637415
     0.868723750         0.365362585         0.376840144
     0.368723750         0.134637430         0.623159826
     0.365362585         0.376840144         0.868723750
